c File: flat50_3_0.col
c
c SOURCE: Joseph Culberson (joe@cs.ualberta.ca)
c DESCRIPTION: Quasi-random coloring problem
c              generated with flatness = 0
c                             probability = 0.139
c                             known coloring = 3
c                             random seed = 1376
c              Creation Date:  Tue Jun  9 12:07:50 1998
c Maximum degree = 8 Minimum degree = 2
c p edge 50 115
c cnf created by edge2cnf
p cnf 150 545
-1 -2 0
-1 -3 0
-2 -3 0
1 2 3 0
-4 -5 0
-4 -6 0
-5 -6 0
4 5 6 0
-7 -8 0
-7 -9 0
-8 -9 0
7 8 9 0
-10 -11 0
-10 -12 0
-11 -12 0
10 11 12 0
-13 -14 0
-13 -15 0
-14 -15 0
13 14 15 0
-16 -17 0
-16 -18 0
-17 -18 0
16 17 18 0
-19 -20 0
-19 -21 0
-20 -21 0
19 20 21 0
-22 -23 0
-22 -24 0
-23 -24 0
22 23 24 0
-25 -26 0
-25 -27 0
-26 -27 0
25 26 27 0
-28 -29 0
-28 -30 0
-29 -30 0
28 29 30 0
-31 -32 0
-31 -33 0
-32 -33 0
31 32 33 0
-34 -35 0
-34 -36 0
-35 -36 0
34 35 36 0
-37 -38 0
-37 -39 0
-38 -39 0
37 38 39 0
-40 -41 0
-40 -42 0
-41 -42 0
40 41 42 0
-43 -44 0
-43 -45 0
-44 -45 0
43 44 45 0
-46 -47 0
-46 -48 0
-47 -48 0
46 47 48 0
-49 -50 0
-49 -51 0
-50 -51 0
49 50 51 0
-52 -53 0
-52 -54 0
-53 -54 0
52 53 54 0
-55 -56 0
-55 -57 0
-56 -57 0
55 56 57 0
-58 -59 0
-58 -60 0
-59 -60 0
58 59 60 0
-61 -62 0
-61 -63 0
-62 -63 0
61 62 63 0
-64 -65 0
-64 -66 0
-65 -66 0
64 65 66 0
-67 -68 0
-67 -69 0
-68 -69 0
67 68 69 0
-70 -71 0
-70 -72 0
-71 -72 0
70 71 72 0
-73 -74 0
-73 -75 0
-74 -75 0
73 74 75 0
-76 -77 0
-76 -78 0
-77 -78 0
76 77 78 0
-79 -80 0
-79 -81 0
-80 -81 0
79 80 81 0
-82 -83 0
-82 -84 0
-83 -84 0
82 83 84 0
-85 -86 0
-85 -87 0
-86 -87 0
85 86 87 0
-88 -89 0
-88 -90 0
-89 -90 0
88 89 90 0
-91 -92 0
-91 -93 0
-92 -93 0
91 92 93 0
-94 -95 0
-94 -96 0
-95 -96 0
94 95 96 0
-97 -98 0
-97 -99 0
-98 -99 0
97 98 99 0
-100 -101 0
-100 -102 0
-101 -102 0
100 101 102 0
-103 -104 0
-103 -105 0
-104 -105 0
103 104 105 0
-106 -107 0
-106 -108 0
-107 -108 0
106 107 108 0
-109 -110 0
-109 -111 0
-110 -111 0
109 110 111 0
-112 -113 0
-112 -114 0
-113 -114 0
112 113 114 0
-115 -116 0
-115 -117 0
-116 -117 0
115 116 117 0
-118 -119 0
-118 -120 0
-119 -120 0
118 119 120 0
-121 -122 0
-121 -123 0
-122 -123 0
121 122 123 0
-124 -125 0
-124 -126 0
-125 -126 0
124 125 126 0
-127 -128 0
-127 -129 0
-128 -129 0
127 128 129 0
-130 -131 0
-130 -132 0
-131 -132 0
130 131 132 0
-133 -134 0
-133 -135 0
-134 -135 0
133 134 135 0
-136 -137 0
-136 -138 0
-137 -138 0
136 137 138 0
-139 -140 0
-139 -141 0
-140 -141 0
139 140 141 0
-142 -143 0
-142 -144 0
-143 -144 0
142 143 144 0
-145 -146 0
-145 -147 0
-146 -147 0
145 146 147 0
-148 -149 0
-148 -150 0
-149 -150 0
148 149 150 0
-91 -1 0
-92 -2 0
-93 -3 0
-115 -1 0
-116 -2 0
-117 -3 0
-124 -1 0
-125 -2 0
-126 -3 0
-127 -1 0
-128 -2 0
-129 -3 0
-139 -1 0
-140 -2 0
-141 -3 0
-67 -4 0
-68 -5 0
-69 -6 0
-85 -4 0
-86 -5 0
-87 -6 0
-136 -4 0
-137 -5 0
-138 -6 0
-64 -7 0
-65 -8 0
-66 -9 0
-97 -7 0
-98 -8 0
-99 -9 0
-100 -7 0
-101 -8 0
-102 -9 0
-112 -7 0
-113 -8 0
-114 -9 0
-52 -10 0
-53 -11 0
-54 -12 0
-136 -10 0
-137 -11 0
-138 -12 0
-67 -13 0
-68 -14 0
-69 -15 0
-70 -13 0
-71 -14 0
-72 -15 0
-76 -13 0
-77 -14 0
-78 -15 0
-88 -13 0
-89 -14 0
-90 -15 0
-118 -13 0
-119 -14 0
-120 -15 0
-136 -13 0
-137 -14 0
-138 -15 0
-145 -13 0
-146 -14 0
-147 -15 0
-55 -16 0
-56 -17 0
-57 -18 0
-58 -16 0
-59 -17 0
-60 -18 0
-94 -16 0
-95 -17 0
-96 -18 0
-124 -16 0
-125 -17 0
-126 -18 0
-130 -16 0
-131 -17 0
-132 -18 0
-73 -19 0
-74 -20 0
-75 -21 0
-79 -19 0
-80 -20 0
-81 -21 0
-85 -19 0
-86 -20 0
-87 -21 0
-91 -19 0
-92 -20 0
-93 -21 0
-109 -19 0
-110 -20 0
-111 -21 0
-124 -19 0
-125 -20 0
-126 -21 0
-58 -22 0
-59 -23 0
-60 -24 0
-73 -22 0
-74 -23 0
-75 -24 0
-85 -22 0
-86 -23 0
-87 -24 0
-97 -22 0
-98 -23 0
-99 -24 0
-106 -22 0
-107 -23 0
-108 -24 0
-142 -22 0
-143 -23 0
-144 -24 0
-73 -25 0
-74 -26 0
-75 -27 0
-103 -25 0
-104 -26 0
-105 -27 0
-145 -25 0
-146 -26 0
-147 -27 0
-100 -28 0
-101 -29 0
-102 -30 0
-118 -28 0
-119 -29 0
-120 -30 0
-121 -28 0
-122 -29 0
-123 -30 0
-67 -31 0
-68 -32 0
-69 -33 0
-103 -31 0
-104 -32 0
-105 -33 0
-121 -31 0
-122 -32 0
-123 -33 0
-61 -34 0
-62 -35 0
-63 -36 0
-106 -34 0
-107 -35 0
-108 -36 0
-118 -34 0
-119 -35 0
-120 -36 0
-124 -34 0
-125 -35 0
-126 -36 0
-127 -34 0
-128 -35 0
-129 -36 0
-55 -37 0
-56 -38 0
-57 -39 0
-73 -37 0
-74 -38 0
-75 -39 0
-82 -37 0
-83 -38 0
-84 -39 0
-121 -37 0
-122 -38 0
-123 -39 0
-127 -37 0
-128 -38 0
-129 -39 0
-136 -37 0
-137 -38 0
-138 -39 0
-58 -40 0
-59 -41 0
-60 -42 0
-61 -40 0
-62 -41 0
-63 -42 0
-142 -40 0
-143 -41 0
-144 -42 0
-52 -43 0
-53 -44 0
-54 -45 0
-58 -43 0
-59 -44 0
-60 -45 0
-64 -43 0
-65 -44 0
-66 -45 0
-76 -43 0
-77 -44 0
-78 -45 0
-103 -43 0
-104 -44 0
-105 -45 0
-130 -43 0
-131 -44 0
-132 -45 0
-145 -43 0
-146 -44 0
-147 -45 0
-76 -46 0
-77 -47 0
-78 -48 0
-121 -46 0
-122 -47 0
-123 -48 0
-145 -46 0
-146 -47 0
-147 -48 0
-64 -49 0
-65 -50 0
-66 -51 0
-67 -49 0
-68 -50 0
-69 -51 0
-82 -49 0
-83 -50 0
-84 -51 0
-85 -49 0
-86 -50 0
-87 -51 0
-112 -49 0
-113 -50 0
-114 -51 0
-133 -49 0
-134 -50 0
-135 -51 0
-139 -49 0
-140 -50 0
-141 -51 0
-145 -52 0
-146 -53 0
-147 -54 0
-148 -52 0
-149 -53 0
-150 -54 0
-124 -55 0
-125 -56 0
-126 -57 0
-130 -55 0
-131 -56 0
-132 -57 0
-145 -55 0
-146 -56 0
-147 -57 0
-133 -58 0
-134 -59 0
-135 -60 0
-148 -58 0
-149 -59 0
-150 -60 0
-115 -61 0
-116 -62 0
-117 -63 0
-121 -61 0
-122 -62 0
-123 -63 0
-130 -61 0
-131 -62 0
-132 -63 0
-109 -64 0
-110 -65 0
-111 -66 0
-130 -64 0
-131 -65 0
-132 -66 0
-148 -64 0
-149 -65 0
-150 -66 0
-112 -67 0
-113 -68 0
-114 -69 0
-133 -67 0
-134 -68 0
-135 -69 0
-139 -67 0
-140 -68 0
-141 -69 0
-145 -67 0
-146 -68 0
-147 -69 0
-142 -70 0
-143 -71 0
-144 -72 0
-148 -70 0
-149 -71 0
-150 -72 0
-112 -73 0
-113 -74 0
-114 -75 0
-124 -73 0
-125 -74 0
-126 -75 0
-103 -76 0
-104 -77 0
-105 -78 0
-130 -79 0
-131 -80 0
-132 -81 0
-112 -82 0
-113 -83 0
-114 -84 0
-127 -82 0
-128 -83 0
-129 -84 0
-103 -85 0
-104 -86 0
-105 -87 0
-106 -85 0
-107 -86 0
-108 -87 0
-133 -85 0
-134 -86 0
-135 -87 0
-139 -88 0
-140 -89 0
-141 -90 0
-139 -91 0
-140 -92 0
-141 -93 0
-145 -91 0
-146 -92 0
-147 -93 0
-112 -94 0
-113 -95 0
-114 -96 0
-115 -94 0
-116 -95 0
-117 -96 0
-136 -94 0
-137 -95 0
-138 -96 0
-106 -100 0
-107 -101 0
-108 -102 0
-118 -100 0
-119 -101 0
-120 -102 0
-121 -100 0
-122 -101 0
-123 -102 0
